


































































































37 15 34 74 52 
32 67 13 33 9 
4 57 20 42 5 
16 59 47 55 10 
11 1 54 2 3 
73 8 17 51 22 
7 43 29 61 45 
30 38 36 41 0 
53 28 6 25 62 
50 68 69 65 60 
75 35 76 18 49 
44 70 23 26 64 
58 72 14 63 19 
21 
27 71 39 48 24 
31 66 56 40 12 46 
